c SAT Generator for power-law distributed variable frequencies
c -g u -v 20 -c 91 -k 3 -p 2.750000 -b 3.200000 -f /home/schmidt/Devel/ni-kop-sat/data/ensemble/ruf20-91/ruf20-91-279 -u 1 -U 1 -s 1391787004
p cnf 20 91
-2 4 16 0
6 19 -20 0
-6 14 17 0
-9 12 -16 0
-8 -12 -19 0
-1 -5 -7 0
1 -2 5 0
-5 -12 15 0
-4 5 15 0
-3 -8 19 0
12 13 -17 0
-2 10 -16 0
-7 16 -20 0
1 -6 -13 0
-10 -13 -20 0
-3 -9 -13 0
5 -7 8 0
-4 -6 -12 0
3 8 -12 0
-5 -9 -12 0
6 11 -12 0
-4 16 -18 0
10 -17 20 0
4 -8 14 0
-4 6 -13 0
9 16 -17 0
-11 -14 16 0
1 13 -20 0
6 -13 17 0
-5 -6 11 0
-2 -12 20 0
6 -16 -19 0
5 12 20 0
5 -9 -19 0
-5 -8 -9 0
-2 -11 15 0
-6 10 15 0
4 -5 -7 0
-7 11 -14 0
-9 10 -20 0
-4 9 14 0
-5 -13 -17 0
-5 -16 -20 0
10 13 17 0
-1 14 -18 0
-10 -11 12 0
8 15 17 0
-10 17 18 0
10 -12 17 0
5 -9 15 0
-7 -13 -16 0
-5 6 -17 0
-8 -11 20 0
2 -7 -12 0
-7 10 19 0
-5 8 -9 0
3 13 15 0
2 13 -17 0
-5 -11 -18 0
-15 18 19 0
11 13 17 0
-10 -11 17 0
11 13 -17 0
-3 -14 -15 0
-11 -14 -20 0
9 -10 19 0
-7 -15 16 0
-12 13 -16 0
-4 5 -16 0
4 -5 17 0
-5 18 20 0
-7 -9 -14 0
-7 13 19 0
3 6 20 0
16 -17 -18 0
5 12 -13 0
9 11 -19 0
2 -16 18 0
-5 -6 -18 0
-2 -6 -20 0
4 -5 15 0
-9 -10 15 0
-2 17 19 0
1 -7 10 0
2 -4 -6 0
-9 19 20 0
-8 9 -13 0
-5 16 -18 0
1 12 -18 0
-2 3 -15 0
-2 -6 12 0
